100 500 563
10 10
8 9
8 8
11 12
9 9
11 12
13 12
11 12
8 11
12 9
9 8
9 13
12 9
13 13
10 13
10 13
8 8
10 11
11 8
11 9
9 13
10 12
10 12
10 13
12 10
11 11
11 9
11 12
11 12
8 8
10 9
9 10
9 11
9 8
10 13
13 10
12 11
12 10
13 13
10 9
13 13
12 11
12 10
10 10
10 9
8 12
13 12
13 13
8 13
11 12
13 12
10 13
13 13
9 9
11 13
9 10
12 8
11 11
8 10
11 13
8 8
9 10
9 8
12 8
13 10
12 12
9 12
8 10
8 10
8 10
13 9
10 12
13 13
9 11
9 13
9 12
11 10
8 10
9 11
8 13
8 10
9 9
9 8
12 10
9 12
10 10
12 11
11 12
10 8
8 12
9 12
12 9
9 12
11 8
10 8
9 12
8 13
10 13
11 11
9 12
